c "235796.clq"
p edge 100 1344
e 1 17
e 1 18
e 1 19
e 1 20
e 1 21
e 1 25
e 1 28
e 1 31
e 1 33
e 1 35
e 1 36
e 1 39
e 1 40
e 1 42
e 1 43
e 1 46
e 1 47
e 1 55
e 1 64
e 1 67
e 1 74
e 1 78
e 1 79
e 1 93
e 2 17
e 2 18
e 2 19
e 2 20
e 2 21
e 2 22
e 2 23
e 2 28
e 2 29
e 2 32
e 2 34
e 2 45
e 2 46
e 2 53
e 2 73
e 2 79
e 2 87
e 3 17
e 3 18
e 3 19
e 3 22
e 3 25
e 3 31
e 3 33
e 3 42
e 3 47
e 3 50
e 3 64
e 3 65
e 3 66
e 3 67
e 3 68
e 3 73
e 3 75
e 3 80
e 3 82
e 3 83
e 3 86
e 3 89
e 3 91
e 3 94
e 4 17
e 4 18
e 4 19
e 4 20
e 4 21
e 4 22
e 4 23
e 4 25
e 4 29
e 4 31
e 4 33
e 4 35
e 4 37
e 4 52
e 4 54
e 4 56
e 4 68
e 4 79
e 4 81
e 4 84
e 4 91
e 4 92
e 5 17
e 5 18
e 5 19
e 5 20
e 5 21
e 5 22
e 5 23
e 5 24
e 5 26
e 5 31
e 5 33
e 5 36
e 5 38
e 5 39
e 5 42
e 5 45
e 5 49
e 5 52
e 5 62
e 5 66
e 5 68
e 5 75
e 5 79
e 5 82
e 5 83
e 5 91
e 5 97
e 5 99
e 5 100
e 6 17
e 6 18
e 6 19
e 6 22
e 6 23
e 6 24
e 6 25
e 6 27
e 6 28
e 6 30
e 6 32
e 6 33
e 6 34
e 6 37
e 6 38
e 6 42
e 6 45
e 6 48
e 6 50
e 6 51
e 6 52
e 6 55
e 6 57
e 6 58
e 6 64
e 6 65
e 6 72
e 6 79
e 6 82
e 6 86
e 6 87
e 6 89
e 7 17
e 7 18
e 7 19
e 7 20
e 7 21
e 7 22
e 7 26
e 7 28
e 7 30
e 7 32
e 7 35
e 7 38
e 7 41
e 7 43
e 7 44
e 7 47
e 7 55
e 7 56
e 7 61
e 7 63
e 7 77
e 8 17
e 8 18
e 8 20
e 8 21
e 8 22
e 8 23
e 8 24
e 8 27
e 8 29
e 8 42
e 8 43
e 8 55
e 8 58
e 8 59
e 8 64
e 8 65
e 8 73
e 8 93
e 9 17
e 9 18
e 9 19
e 9 20
e 9 21
e 9 23
e 9 25
e 9 26
e 9 27
e 9 29
e 9 31
e 9 33
e 9 35
e 9 38
e 9 39
e 9 41
e 9 42
e 9 44
e 9 45
e 9 46
e 9 47
e 9 56
e 9 58
e 9 60
e 9 63
e 9 69
e 9 70
e 9 72
e 9 84
e 9 86
e 9 88
e 9 89
e 9 95
e 9 97
e 9 100
e 10 17
e 10 18
e 10 19
e 10 20
e 10 22
e 10 23
e 10 24
e 10 25
e 10 26
e 10 27
e 10 35
e 10 36
e 10 40
e 10 46
e 10 55
e 10 56
e 10 58
e 10 59
e 10 60
e 10 61
e 10 62
e 10 64
e 10 72
e 10 73
e 10 74
e 10 78
e 10 83
e 10 91
e 11 17
e 11 18
e 11 19
e 11 20
e 11 21
e 11 24
e 11 25
e 11 27
e 11 28
e 11 30
e 11 32
e 11 36
e 11 39
e 11 44
e 11 46
e 11 48
e 11 51
e 11 53
e 11 54
e 11 55
e 11 58
e 11 59
e 11 68
e 11 71
e 11 74
e 11 78
e 11 87
e 11 97
e 11 98
e 12 17
e 12 18
e 12 19
e 12 20
e 12 21
e 12 22
e 12 23
e 12 24
e 12 25
e 12 27
e 12 29
e 12 30
e 12 32
e 12 33
e 12 34
e 12 38
e 12 40
e 12 43
e 12 44
e 12 49
e 12 53
e 12 54
e 12 59
e 12 67
e 12 68
e 12 69
e 12 71
e 12 72
e 12 74
e 12 77
e 12 78
e 12 81
e 12 87
e 12 92
e 12 94
e 13 17
e 13 18
e 13 19
e 13 20
e 13 21
e 13 22
e 13 23
e 13 24
e 13 26
e 13 27
e 13 28
e 13 29
e 13 30
e 13 36
e 13 37
e 13 38
e 13 39
e 13 43
e 13 44
e 13 45
e 13 48
e 13 49
e 13 50
e 13 53
e 13 54
e 13 60
e 13 62
e 13 66
e 13 67
e 13 69
e 13 70
e 13 76
e 13 79
e 13 83
e 13 91
e 13 95
e 13 100
e 14 17
e 14 18
e 14 19
e 14 20
e 14 21
e 14 22
e 14 23
e 14 24
e 14 27
e 14 30
e 14 33
e 14 37
e 14 38
e 14 39
e 14 41
e 14 42
e 14 48
e 14 51
e 14 52
e 14 54
e 14 63
e 14 69
e 14 72
e 14 73
e 14 77
e 14 78
e 14 82
e 14 89
e 14 100
e 15 17
e 15 19
e 15 24
e 15 25
e 15 26
e 15 32
e 15 45
e 15 49
e 15 58
e 15 61
e 15 63
e 15 66
e 15 69
e 15 82
e 15 85
e 15 87
e 16 17
e 16 18
e 16 20
e 16 21
e 16 23
e 16 25
e 16 26
e 16 45
e 16 50
e 16 54
e 16 66
e 16 94
e 16 100
e 17 18
e 17 19
e 17 20
e 17 21
e 17 22
e 17 23
e 17 24
e 17 26
e 17 27
e 17 29
e 17 31
e 17 34
e 17 35
e 17 36
e 17 37
e 17 38
e 17 39
e 17 41
e 17 42
e 17 45
e 17 46
e 17 47
e 17 48
e 17 49
e 17 50
e 17 52
e 17 53
e 17 55
e 17 56
e 17 58
e 17 59
e 17 60
e 17 62
e 17 65
e 17 75
e 17 76
e 17 77
e 17 81
e 17 83
e 17 85
e 17 90
e 17 93
e 17 95
e 17 96
e 18 19
e 18 20
e 18 21
e 18 22
e 18 23
e 18 24
e 18 25
e 18 26
e 18 27
e 18 28
e 18 29
e 18 30
e 18 31
e 18 32
e 18 33
e 18 34
e 18 35
e 18 36
e 18 37
e 18 40
e 18 41
e 18 42
e 18 43
e 18 51
e 18 60
e 18 63
e 18 65
e 18 68
e 18 70
e 18 71
e 18 72
e 18 73
e 18 81
e 18 82
e 18 83
e 18 89
e 18 95
e 18 97
e 18 99
e 19 20
e 19 21
e 19 22
e 19 24
e 19 25
e 19 26
e 19 27
e 19 28
e 19 30
e 19 31
e 19 33
e 19 37
e 19 38
e 19 39
e 19 40
e 19 41
e 19 43
e 19 44
e 19 45
e 19 47
e 19 49
e 19 52
e 19 54
e 19 57
e 19 59
e 19 65
e 19 67
e 19 70
e 19 73
e 19 74
e 19 75
e 19 80
e 19 83
e 19 96
e 19 99
e 20 21
e 20 22
e 20 23
e 20 24
e 20 26
e 20 27
e 20 28
e 20 29
e 20 30
e 20 31
e 20 32
e 20 36
e 20 37
e 20 38
e 20 39
e 20 40
e 20 42
e 20 43
e 20 44
e 20 47
e 20 48
e 20 49
e 20 50
e 20 54
e 20 56
e 20 57
e 20 60
e 20 61
e 20 64
e 20 67
e 20 69
e 20 71
e 20 72
e 20 84
e 20 85
e 20 88
e 20 89
e 20 93
e 20 94
e 20 98
e 20 99
e 20 100
e 21 22
e 21 23
e 21 24
e 21 25
e 21 26
e 21 27
e 21 28
e 21 29
e 21 30
e 21 31
e 21 32
e 21 33
e 21 34
e 21 35
e 21 36
e 21 37
e 21 39
e 21 40
e 21 41
e 21 44
e 21 47
e 21 48
e 21 49
e 21 50
e 21 52
e 21 53
e 21 54
e 21 55
e 21 56
e 21 59
e 21 63
e 21 64
e 21 65
e 21 67
e 21 69
e 21 71
e 21 73
e 21 76
e 21 77
e 21 80
e 21 83
e 21 85
e 21 86
e 21 87
e 21 90
e 21 92
e 21 93
e 21 95
e 21 99
e 21 100
e 22 23
e 22 24
e 22 25
e 22 26
e 22 28
e 22 29
e 22 30
e 22 31
e 22 32
e 22 33
e 22 34
e 22 35
e 22 36
e 22 37
e 22 40
e 22 45
e 22 51
e 22 59
e 22 60
e 22 71
e 22 81
e 22 84
e 22 86
e 22 88
e 22 91
e 23 24
e 23 25
e 23 26
e 23 27
e 23 28
e 23 29
e 23 30
e 23 32
e 23 33
e 23 34
e 23 35
e 23 37
e 23 38
e 23 39
e 23 40
e 23 41
e 23 43
e 23 47
e 23 48
e 23 52
e 23 53
e 23 56
e 23 57
e 23 58
e 23 61
e 23 63
e 23 70
e 23 71
e 23 73
e 23 77
e 23 83
e 23 93
e 23 97
e 23 98
e 23 99
e 24 25
e 24 26
e 24 28
e 24 29
e 24 30
e 24 31
e 24 32
e 24 33
e 24 34
e 24 35
e 24 36
e 24 37
e 24 38
e 24 39
e 24 44
e 24 46
e 24 48
e 24 49
e 24 52
e 24 53
e 24 57
e 24 59
e 24 61
e 24 65
e 24 68
e 24 71
e 24 73
e 24 75
e 24 76
e 24 77
e 24 78
e 24 79
e 24 80
e 24 81
e 24 82
e 24 86
e 24 90
e 24 93
e 24 95
e 24 96
e 24 97
e 25 26
e 25 27
e 25 28
e 25 29
e 25 31
e 25 32
e 25 34
e 25 35
e 25 36
e 25 37
e 25 40
e 25 41
e 25 42
e 25 43
e 25 44
e 25 47
e 25 49
e 25 50
e 25 51
e 25 54
e 25 55
e 25 56
e 25 57
e 25 62
e 25 69
e 25 77
e 25 78
e 25 81
e 25 86
e 25 87
e 25 95
e 25 97
e 25 99
e 26 27
e 26 28
e 26 29
e 26 30
e 26 31
e 26 32
e 26 34
e 26 37
e 26 38
e 26 41
e 26 43
e 26 46
e 26 47
e 26 48
e 26 49
e 26 50
e 26 51
e 26 52
e 26 53
e 26 54
e 26 58
e 26 61
e 26 62
e 26 63
e 26 66
e 26 67
e 26 69
e 26 71
e 26 74
e 26 75
e 26 76
e 26 78
e 26 79
e 26 80
e 26 85
e 26 87
e 26 89
e 26 90
e 26 91
e 26 92
e 26 95
e 26 96
e 26 100
e 27 28
e 27 29
e 27 30
e 27 34
e 27 35
e 27 36
e 27 41
e 27 44
e 27 49
e 27 51
e 27 56
e 27 58
e 27 61
e 27 64
e 27 68
e 27 73
e 27 83
e 27 86
e 27 87
e 27 92
e 27 97
e 28 31
e 28 32
e 28 33
e 28 35
e 28 38
e 28 41
e 28 42
e 28 43
e 28 44
e 28 49
e 28 51
e 28 57
e 28 59
e 28 60
e 28 61
e 28 68
e 28 71
e 28 75
e 28 77
e 28 78
e 28 81
e 28 89
e 29 30
e 29 32
e 29 33
e 29 34
e 29 35
e 29 37
e 29 38
e 29 40
e 29 41
e 29 43
e 29 44
e 29 45
e 29 46
e 29 48
e 29 50
e 29 56
e 29 60
e 29 65
e 29 66
e 29 69
e 29 72
e 29 74
e 29 75
e 29 78
e 29 79
e 29 82
e 29 84
e 29 93
e 29 94
e 29 98
e 30 31
e 30 37
e 30 42
e 30 45
e 30 46
e 30 51
e 30 53
e 30 56
e 30 57
e 30 59
e 30 60
e 30 64
e 30 65
e 30 67
e 30 69
e 30 73
e 30 74
e 30 76
e 30 85
e 30 88
e 30 94
e 30 97
e 31 34
e 31 35
e 31 36
e 31 40
e 31 41
e 31 42
e 31 44
e 31 45
e 31 47
e 31 48
e 31 55
e 31 56
e 31 60
e 31 61
e 31 67
e 31 68
e 31 69
e 31 76
e 31 80
e 31 82
e 31 85
e 31 86
e 31 90
e 31 91
e 31 98
e 32 34
e 32 43
e 32 48
e 32 55
e 32 59
e 32 61
e 32 62
e 32 74
e 32 76
e 32 81
e 32 82
e 32 91
e 32 99
e 33 34
e 33 36
e 33 39
e 33 45
e 33 51
e 33 53
e 33 67
e 33 68
e 33 70
e 33 72
e 33 75
e 33 95
e 33 96
e 33 97
e 34 36
e 34 39
e 34 42
e 34 44
e 34 48
e 34 49
e 34 53
e 34 55
e 34 59
e 34 66
e 34 70
e 34 80
e 34 85
e 34 89
e 34 90
e 34 98
e 35 40
e 35 41
e 35 46
e 35 47
e 35 58
e 35 62
e 35 65
e 35 66
e 35 72
e 35 75
e 35 79
e 35 87
e 35 89
e 35 90
e 35 93
e 35 98
e 36 39
e 36 52
e 36 58
e 36 67
e 36 68
e 36 76
e 36 83
e 36 89
e 37 38
e 37 40
e 37 42
e 37 43
e 37 46
e 37 56
e 37 57
e 37 75
e 37 84
e 37 90
e 37 91
e 37 94
e 37 95
e 38 39
e 38 40
e 38 43
e 38 45
e 38 48
e 38 50
e 38 52
e 38 53
e 38 62
e 38 63
e 38 64
e 38 76
e 38 78
e 38 97
e 38 99
e 39 40
e 39 41
e 39 45
e 39 46
e 39 47
e 39 50
e 39 66
e 39 76
e 39 79
e 39 86
e 39 89
e 39 93
e 39 95
e 40 51
e 40 53
e 40 57
e 40 62
e 40 70
e 40 71
e 40 72
e 40 73
e 40 75
e 40 90
e 41 46
e 41 52
e 41 54
e 41 64
e 41 68
e 41 71
e 41 76
e 41 77
e 41 79
e 41 81
e 41 84
e 41 88
e 41 90
e 41 91
e 41 93
e 41 98
e 41 100
e 42 46
e 42 49
e 42 50
e 42 51
e 42 53
e 42 54
e 42 57
e 42 59
e 42 60
e 42 63
e 42 71
e 42 76
e 42 78
e 42 80
e 42 86
e 42 88
e 42 90
e 42 92
e 42 93
e 43 44
e 43 46
e 43 51
e 43 52
e 43 53
e 43 60
e 43 61
e 43 64
e 43 66
e 43 67
e 43 72
e 43 75
e 43 80
e 43 85
e 43 92
e 43 93
e 43 94
e 43 96
e 43 97
e 43 98
e 44 47
e 44 50
e 44 51
e 44 52
e 44 55
e 44 61
e 44 63
e 44 70
e 44 76
e 44 77
e 44 78
e 44 86
e 44 87
e 44 88
e 44 89
e 44 91
e 44 92
e 44 95
e 44 100
e 45 48
e 45 50
e 45 52
e 45 57
e 45 58
e 45 60
e 45 66
e 45 69
e 45 71
e 45 76
e 45 80
e 45 81
e 45 82
e 45 85
e 45 86
e 46 47
e 46 50
e 46 51
e 46 54
e 46 55
e 46 56
e 46 57
e 46 59
e 46 61
e 46 64
e 46 72
e 46 74
e 46 79
e 46 81
e 46 82
e 46 89
e 46 92
e 46 94
e 47 49
e 47 55
e 47 57
e 47 63
e 47 66
e 47 70
e 47 76
e 47 79
e 47 81
e 47 85
e 47 94
e 47 95
e 48 57
e 48 67
e 48 70
e 48 79
e 48 85
e 48 89
e 48 94
e 49 54
e 49 59
e 49 62
e 49 84
e 49 87
e 49 88
e 49 93
e 49 94
e 49 96
e 49 99
e 50 55
e 50 60
e 50 65
e 50 84
e 50 98
e 51 58
e 51 61
e 51 64
e 51 67
e 51 69
e 51 70
e 51 71
e 51 72
e 51 77
e 51 92
e 51 94
e 51 99
e 52 54
e 52 87
e 52 88
e 53 58
e 53 62
e 53 65
e 53 79
e 54 56
e 54 57
e 54 60
e 54 61
e 54 64
e 54 66
e 54 68
e 54 70
e 54 74
e 54 83
e 54 84
e 54 91
e 54 97
e 54 99
e 55 58
e 55 62
e 55 86
e 55 99
e 56 62
e 56 63
e 56 66
e 56 74
e 56 96
e 56 99
e 57 77
e 57 80
e 57 84
e 57 85
e 57 88
e 57 92
e 58 63
e 58 65
e 58 70
e 58 74
e 58 77
e 59 62
e 59 63
e 59 64
e 59 65
e 59 66
e 59 74
e 59 100
e 60 62
e 60 65
e 60 70
e 60 77
e 60 88
e 60 100
e 61 63
e 61 68
e 61 80
e 61 83
e 61 84
e 61 98
e 62 78
e 62 82
e 62 84
e 62 85
e 62 87
e 62 88
e 62 100
e 63 68
e 63 71
e 63 82
e 63 87
e 63 92
e 63 98
e 64 70
e 64 75
e 64 92
e 65 67
e 65 69
e 65 72
e 65 78
e 65 80
e 65 89
e 65 92
e 65 96
e 66 74
e 66 83
e 67 69
e 67 72
e 67 83
e 67 90
e 68 75
e 68 86
e 68 92
e 69 73
e 69 80
e 69 81
e 69 85
e 69 96
e 69 98
e 70 81
e 71 73
e 71 74
e 71 84
e 72 73
e 72 77
e 72 82
e 72 88
e 72 90
e 72 97
e 73 75
e 73 82
e 73 96
e 74 99
e 75 80
e 75 84
e 75 87
e 75 96
e 76 90
e 77 78
e 77 80
e 77 81
e 77 83
e 77 88
e 77 90
e 77 97
e 78 95
e 79 85
e 79 96
e 80 84
e 81 96
e 83 86
e 83 88
e 83 90
e 83 92
e 83 93
e 83 94
e 84 91
e 85 88
e 85 91
e 86 98
e 86 99
e 87 91
e 87 93
e 87 94
e 88 94
e 91 95
e 91 96
e 91 97
e 91 98
e 92 98
e 94 95
e 94 96
e 95 100
e 97 100
e 99 100
